(set-logic HORN)
(declare-fun state (Bool (Array Int Int) Int Int Bool Bool Bool) Bool)
(assert (forall ((|A_2| Bool) (|C_2| (Array Int Int)) (|D_2| Int) (|G_2| Int) (|.loc.7| Bool) (|.loc.8| Bool) (|E_1| Bool) (|.loc.13| Bool) (|.loc.14| Bool) (|.y.11| Int) (|.y.12| Int) (|.y.9| Bool) (|.y.10| (Array Int Int)) (|.xtv.1| Bool)) (=> (and (not .loc.8) (not .loc.7)) (state |A_2| |C_2| |D_2| |G_2| |.loc.7| |.loc.8| |E_1|))))
(assert (forall ((|A_2| Bool) (|C_2| (Array Int Int)) (|D_2| Int) (|G_2| Int) (|.loc.7| Bool) (|.loc.8| Bool) (|E_1| Bool) (|.loc.13| Bool) (|.loc.14| Bool) (|.y.11| Int) (|.y.12| Int) (|.y.9| Bool) (|.y.10| (Array Int Int)) (|.xtv.1| Bool)) (=> (and (state |A_2| |C_2| |D_2| |G_2| |.loc.7| |.loc.8| |E_1|) (let ((.def_29 (not (<= (- 4) (+ D_2 (* (- 1) G_2)))))) (let ((.def_31 (<= 0 G_2))) (let ((.def_32 (not .def_31))) (let ((.def_34 (<= (- 4) D_2))) (let ((.def_35 (not .def_34))) (let ((.def_39 (and (or (or .def_29 .def_32) .def_35) (or .def_34 (and .def_29 .def_32))))) (let ((.def_41 (= (+ D_2 (* (- 1) G_2)) (- 4)))) (let ((.def_46 (not (<= (+ D_2 (* (- 1) G_2)) (- 4))))) (let ((.def_58 (and (and (not A_2) (not (and (or .def_32 (or .def_35 .def_46)) (or .def_31 (and .def_35 .def_46))))) (or (<= D_2 0) (not (<= D_2 (- 4))))))) (let ((.def_68 (<= .y.12 4))) (let ((.def_79 (not .loc.14))) (and (not .loc.8) (or (or (and (not .loc.13) (and (and .loc.7 (and (or (not .def_39) (not .def_41)) .def_58)) .loc.14)) (and (or (not (<= .y.11 0)) .def_68) (and (not .def_68) (and (or .def_68 (not (<= .y.12 0))) (and (= (+ .y.11 (* (- 1) .y.12)) (- 4)) (and (not .y.9) (and (not .loc.7) (and .loc.13 .def_79)))))))) (and (= G_2 .y.12) (and (or (= E_1 .def_39) (= E_1 .def_41)) (and (= (+ D_2 (* (- 1) .y.11)) (- 4)) (and (= (store C_2 D_2 1) .y.10) (and (= .y.9 (not E_1)) (and .def_79 (and .loc.13 (and .loc.7 .def_58)))))))))))))))))))))) (state |.y.9| |.y.10| |.y.11| |.y.12| |.loc.13| |.loc.14| |.xtv.1|))))
(assert (forall ((|A_2| Bool) (|C_2| (Array Int Int)) (|D_2| Int) (|G_2| Int) (|.loc.7| Bool) (|.loc.8| Bool) (|E_1| Bool) (|.loc.13| Bool) (|.loc.14| Bool) (|.y.11| Int) (|.y.12| Int) (|.y.9| Bool) (|.y.10| (Array Int Int)) (|.xtv.1| Bool)) (=> (state |A_2| |C_2| |D_2| |G_2| |.loc.7| |.loc.8| |E_1|) (not (and .loc.8 (not .loc.7))))))
(check-sat)
